# SCIP version 8.1.0.5

# apply obbt on variables of indicator constraints? (independent of convexity)
# [type: bool, advanced: TRUE, range: {TRUE,FALSE}, default: FALSE]
propagating/obbt/indicators = TRUE

